[VALIDATOR STDOUT]
Checking plan: /home/jfan5/Safety-gen/runs/benchmark/optic/blocksworld_20260201_170641/blocksworld/optic_results/bw_ops3_n13_seed13001.plan
Plan executed successfully - checking goal
Plan valid
Final value: 72 

Successful plans:
Value: 72
 /home/jfan5/Safety-gen/runs/benchmark/optic/blocksworld_20260201_170641/blocksworld/optic_results/bw_ops3_n13_seed13001.plan 72
